Running HiGHS 1.8.1 (git hash: 4a7f24a): Copyright (c) 2024 HiGHS under MIT licence terms
Reading model file  43Vertices.lp  returns a status of  HighsStatus.kOk
Coefficient ranges:
  Matrix [1e-03, 1e+03]
  Cost   [1e+00, 1e+00]
  Bound  [1e+00, 2e+09]
  RHS    [1e+00, 1e+03]
Presolving model
867 rows, 914 cols, 3643 nonzeros  0s
681 rows, 672 cols, 3384 nonzeros  0s
408 rows, 352 cols, 1792 nonzeros  0s
352 rows, 293 cols, 1410 nonzeros  0s
351 rows, 292 cols, 1415 nonzeros  0s

Solving MIP model with:
   351 rows
   292 cols (38 binary, 0 integer, 5 implied int., 249 continuous)
   1415 nonzeros
MIP-Timing:       0.021 - starting analytic centre calculation

Src: B => Branching; C => Central rounding; F => Feasibility pump; H => Heuristic; L => Sub-MIP;
     P => Empty MIP; R => Randomized rounding; S => Solve LP; T => Evaluate node; U => Unbounded;
     z => Trivial zero; l => Trivial lower; u => Trivial upper; p => Trivial point

        Nodes      |    B&B Tree     |            Objective Bounds              |  Dynamic Constraints |       Work      
Src  Proc. InQueue |  Leaves   Expl. | BestBound       BestSol              Gap |   Cuts   InLp Confl. | LpIters     Time

         0       0         0   0.00%   -0.718941236    inf                  inf        0      0      0         0     0.0s
         0       0         0   0.00%   -0.2255785846   inf                  inf        0      0      3       357     0.0s
 C       0       0         0   0.00%   -0.2063571936   -0.0760832       171.23%      321     53     35       525     0.1s

Symmetry detection completed in 0.0s
No symmetry present

 L       0       0         0   0.00%   -0.199884391    -0.0760832       162.72%      525     37     35      3149     0.9s
 B      93       8        39  83.39%   -0.199884391    -0.0760832116    162.72%      569     37    369     14063     1.5s
 B     118       7        50  97.21%   -0.1731325622   -0.1119394525     54.67%      829     59    443     15263     1.7s
 B     118       7        50  97.21%   -0.1731325622   -0.1119394525     54.67%      830     59    443     15263     1.7s
 T     121       7        51  97.21%   -0.1731325622   -0.1119394525     54.67%      832     59    449     15432     1.7s
       169       0        76 100.00%   -0.1119394525   -0.1119394525      0.00%      868     77    582     17101     1.9s

Solving report
  Model             43Vertices
  Status            Optimal
  Primal bound      -0.1119394525
  Dual bound        -0.1119394525
  Gap               0% (tolerance: 0.01%)
  P-D integral      2.68850035992
  Solution status   feasible
                    -0.1119394525 (objective)
                    0 (bound viol.)
                    0 (int. viol.)
                    0 (row viol.)
  Timing            1.90 (total)
                    0.00 (presolve)
                    0.00 (solve)
                    0.00 (postsolve)
  Max sub-MIP depth 4
  Nodes             169
  Repair LPs        0 (0 feasible; 0 iterations)
  LP iterations     17101 (total)
                    8431 (strong br.)
                    730 (separation)
                    3662 (heuristics)
Model status =  Optimal

Optimal objective =  -0.11193945249992808
Iteration count =  17101
Primal solution status =  Feasible
Dual solution status =  None
Basis validity =  Not valid
Writing the solution to ./43Vertices.sol

